(set-option :produce-models true); benchmark generated from python API
(set-info :status unknown)
(declare-fun l_1_0_33 () Real)
(declare-fun l_1_0_32 () Real)
(declare-fun l_1_0_31 () Real)
(declare-fun l_1_0_12 () Real)
(declare-fun l_1_0_10 () Real)
(declare-fun _a_0_ () Real)
(declare-fun l_1_0_6 () Real)
(declare-fun l_1_0_34 () Real)
(declare-fun l_1_0_28 () Real)
(declare-fun l_1_0_24 () Real)
(declare-fun l_1_0_15 () Real)
(declare-fun l_1_0_14 () Real)
(declare-fun l_1_0_1 () Real)
(declare-fun _a_1_ () Real)
(declare-fun l_1_0_38 () Real)
(declare-fun l_1_0_37 () Real)
(declare-fun l_1_0_36 () Real)
(declare-fun l_1_0_30 () Real)
(declare-fun l_1_0_23 () Real)
(declare-fun l_1_0_18 () Real)
(declare-fun l_1_0_16 () Real)
(declare-fun _a_2_ () Real)
(declare-fun l_1_0_9 () Real)
(declare-fun l_1_0_8 () Real)
(declare-fun l_1_0_4 () Real)
(declare-fun l_1_0_35 () Real)
(declare-fun l_1_0_3 () Real)
(declare-fun l_1_0_25 () Real)
(declare-fun l_1_0_22 () Real)
(declare-fun l_1_0_19 () Real)
(declare-fun l_1_0_17 () Real)
(declare-fun _a_3_ () Real)
(declare-fun l_1_0_7 () Real)
(declare-fun l_1_0_5 () Real)
(declare-fun l_1_0_26 () Real)
(declare-fun l_1_0_20 () Real)
(declare-fun l_1_0_2 () Real)
(declare-fun l_1_0_11 () Real)
(declare-fun _a_4_ () Real)
(declare-fun l_1_0_29 () Real)
(declare-fun l_1_0_27 () Real)
(declare-fun l_1_0_21 () Real)
(declare-fun l_1_0_13 () Real)
(declare-fun _a_5_ () Real)
(declare-fun l_1_1_9 () Real)
(declare-fun l_1_1_33 () Real)
(declare-fun l_1_1_32 () Real)
(declare-fun l_1_1_30 () Real)
(declare-fun l_1_1_24 () Real)
(declare-fun l_1_1_22 () Real)
(declare-fun l_1_1_2 () Real)
(declare-fun l_1_1_19 () Real)
(declare-fun l_1_1_15 () Real)
(declare-fun l_1_1_13 () Real)
(declare-fun l_1_1_5 () Real)
(declare-fun l_1_1_4 () Real)
(declare-fun l_1_1_28 () Real)
(declare-fun l_1_1_23 () Real)
(declare-fun l_1_1_18 () Real)
(declare-fun l_1_1_8 () Real)
(declare-fun l_1_1_7 () Real)
(declare-fun l_1_1_38 () Real)
(declare-fun l_1_1_37 () Real)
(declare-fun l_1_1_36 () Real)
(declare-fun l_1_1_31 () Real)
(declare-fun l_1_1_3 () Real)
(declare-fun l_1_1_25 () Real)
(declare-fun l_1_1_16 () Real)
(declare-fun l_1_1_12 () Real)
(declare-fun l_1_1_10 () Real)
(declare-fun l_1_1_34 () Real)
(declare-fun l_1_1_29 () Real)
(declare-fun l_1_1_26 () Real)
(declare-fun l_1_1_21 () Real)
(declare-fun l_1_1_11 () Real)
(declare-fun l_1_1_1 () Real)
(declare-fun l_1_1_20 () Real)
(declare-fun l_1_1_17 () Real)
(declare-fun l_1_1_35 () Real)
(declare-fun l_1_1_14 () Real)
(declare-fun l_1_1_6 () Real)
(declare-fun l_1_1_27 () Real)
(declare-fun l_1_2_9 () Real)
(declare-fun l_1_2_8 () Real)
(declare-fun l_1_2_5 () Real)
(declare-fun l_1_2_45 () Real)
(declare-fun l_1_2_44 () Real)
(declare-fun l_1_2_34 () Real)
(declare-fun l_1_2_32 () Real)
(declare-fun l_1_2_31 () Real)
(declare-fun l_1_2_30 () Real)
(declare-fun l_1_2_27 () Real)
(declare-fun l_1_2_21 () Real)
(declare-fun l_1_2_19 () Real)
(declare-fun l_1_2_15 () Real)
(declare-fun l_1_2_13 () Real)
(declare-fun l_1_2_10 () Real)
(declare-fun l_1_2_1 () Real)
(declare-fun l_1_2_41 () Real)
(declare-fun l_1_2_4 () Real)
(declare-fun l_1_2_38 () Real)
(declare-fun l_1_2_35 () Real)
(declare-fun l_1_2_33 () Real)
(declare-fun l_1_2_18 () Real)
(declare-fun l_1_2_12 () Real)
(declare-fun l_1_2_46 () Real)
(declare-fun l_1_2_39 () Real)
(declare-fun l_1_2_36 () Real)
(declare-fun l_1_2_29 () Real)
(declare-fun l_1_2_25 () Real)
(declare-fun l_1_2_23 () Real)
(declare-fun l_1_2_20 () Real)
(declare-fun l_1_2_16 () Real)
(declare-fun l_1_2_3 () Real)
(declare-fun l_1_2_11 () Real)
(declare-fun l_1_2_7 () Real)
(declare-fun l_1_2_50 () Real)
(declare-fun l_1_2_49 () Real)
(declare-fun l_1_2_48 () Real)
(declare-fun l_1_2_43 () Real)
(declare-fun l_1_2_42 () Real)
(declare-fun l_1_2_40 () Real)
(declare-fun l_1_2_37 () Real)
(declare-fun l_1_2_28 () Real)
(declare-fun l_1_2_24 () Real)
(declare-fun l_1_2_2 () Real)
(declare-fun l_1_2_17 () Real)
(declare-fun l_1_2_14 () Real)
(declare-fun l_1_2_47 () Real)
(declare-fun l_1_2_22 () Real)
(declare-fun l_1_2_6 () Real)
(declare-fun l_1_2_26 () Real)
(declare-fun l_1_3_6 () Real)
(declare-fun l_1_3_33 () Real)
(declare-fun l_1_3_32 () Real)
(declare-fun l_1_3_29 () Real)
(declare-fun l_1_3_28 () Real)
(declare-fun l_1_3_27 () Real)
(declare-fun l_1_3_22 () Real)
(declare-fun l_1_3_21 () Real)
(declare-fun l_1_3_18 () Real)
(declare-fun l_1_3_10 () Real)
(declare-fun l_1_3_7 () Real)
(declare-fun l_1_3_5 () Real)
(declare-fun l_1_3_26 () Real)
(declare-fun l_1_3_25 () Real)
(declare-fun l_1_3_23 () Real)
(declare-fun l_1_3_4 () Real)
(declare-fun l_1_3_34 () Real)
(declare-fun l_1_3_30 () Real)
(declare-fun l_1_3_20 () Real)
(declare-fun l_1_3_17 () Real)
(declare-fun l_1_3_13 () Real)
(declare-fun l_1_3_3 () Real)
(declare-fun l_1_3_19 () Real)
(declare-fun l_1_3_36 () Real)
(declare-fun l_1_3_24 () Real)
(declare-fun l_1_3_16 () Real)
(declare-fun l_1_3_15 () Real)
(declare-fun l_1_3_12 () Real)
(declare-fun l_1_3_1 () Real)
(declare-fun l_1_3_9 () Real)
(declare-fun l_1_3_31 () Real)
(declare-fun l_1_3_38 () Real)
(declare-fun l_1_3_37 () Real)
(declare-fun l_1_3_14 () Real)
(declare-fun l_1_3_8 () Real)
(declare-fun l_1_3_35 () Real)
(declare-fun l_1_3_11 () Real)
(declare-fun l_1_3_2 () Real)
(assert
 (let ((?x131 (* l_1_0_33 l_1_0_33)))
 (let ((?x2960 (- (- (- (- (- _a_0_ l_1_0_10) l_1_0_12) l_1_0_31) l_1_0_32) ?x131)))
 (= ?x2960 0.0))))
(assert
 (let ((?x110 (+ (+ (- (- (- _a_1_ l_1_0_1) l_1_0_14) l_1_0_15) l_1_0_24) l_1_0_28)))
 (= (+ (- ?x110 (* (* 2.0 l_1_0_33) l_1_0_34)) l_1_0_6) 0.0)))
(assert
 (let ((?x2891 (* l_1_0_38 l_1_0_38)))
 (let ((?x2796 (* l_1_0_37 l_1_0_37)))
 (let ((?x2790 (* l_1_0_36 l_1_0_36)))
 (let ((?x2889 (- (- (- (+ (+ _a_2_ l_1_0_16) l_1_0_18) l_1_0_23) l_1_0_30) ?x2790)))
 (= (- (- ?x2889 ?x2796) ?x2891) 0.0))))))
(assert
 (let ((?x2811 (+ (+ (+ (- (+ _a_3_ l_1_0_17) l_1_0_19) l_1_0_22) l_1_0_25) l_1_0_3)))
 (let ((?x2746 (- (- ?x2811 (* (* 2.0 l_1_0_34) l_1_0_36)) (* (* 2.0 l_1_0_35) l_1_0_37))))
 (= (- (- (- ?x2746 l_1_0_4) l_1_0_8) l_1_0_9) 0.0))))
(assert
 (let ((?x2648 (- (+ (- (- (+ _a_4_ l_1_0_11) l_1_0_2) l_1_0_20) l_1_0_26) (* (* 2.0 l_1_0_33) l_1_0_36))))
 (= (- (+ ?x2648 l_1_0_5) l_1_0_7) 0.0)))
(assert
 (let ((?x2559 (* l_1_0_35 l_1_0_35)))
 (let ((?x2672 (* l_1_0_34 l_1_0_34)))
 (let ((?x2557 (- (- (+ (+ (- _a_5_ l_1_0_13) l_1_0_21) l_1_0_27) l_1_0_29) ?x2672)))
 (= (- ?x2557 ?x2559) 0.0)))))
(assert
 (>= l_1_0_1 0.0))
(assert
 (>= l_1_0_2 0.0))
(assert
 (>= l_1_0_3 0.0))
(assert
 (>= l_1_0_4 0.0))
(assert
 (>= l_1_0_5 0.0))
(assert
 (>= l_1_0_6 0.0))
(assert
 (>= l_1_0_7 0.0))
(assert
 (>= l_1_0_8 0.0))
(assert
 (>= l_1_0_9 0.0))
(assert
 (>= l_1_0_10 0.0))
(assert
 (>= l_1_0_11 0.0))
(assert
 (>= l_1_0_12 0.0))
(assert
 (>= l_1_0_13 0.0))
(assert
 (>= l_1_0_14 0.0))
(assert
 (>= l_1_0_15 0.0))
(assert
 (>= l_1_0_16 0.0))
(assert
 (>= l_1_0_17 0.0))
(assert
 (>= l_1_0_18 0.0))
(assert
 (>= l_1_0_19 0.0))
(assert
 (>= l_1_0_20 0.0))
(assert
 (>= l_1_0_21 0.0))
(assert
 (>= l_1_0_22 0.0))
(assert
 (>= l_1_0_23 0.0))
(assert
 (>= l_1_0_24 0.0))
(assert
 (>= l_1_0_25 0.0))
(assert
 (>= l_1_0_26 0.0))
(assert
 (>= l_1_0_27 0.0))
(assert
 (>= l_1_0_28 0.0))
(assert
 (>= l_1_0_29 0.0))
(assert
 (>= l_1_0_30 0.0))
(assert
 (>= l_1_0_31 0.0))
(assert
 (>= l_1_0_32 0.0))
(assert
 (>= l_1_0_33 0.0))
(assert
 (>= l_1_0_35 0.0))
(assert
 (>= l_1_0_38 0.0))
(assert
 (let ((?x2164 (* 25.0 l_1_1_9)))
 (let ((?x2265 (* l_1_1_33 l_1_1_33)))
 (let ((?x2358 (* 5.0 l_1_1_30)))
 (let ((?x2352 (* 5.0 l_1_1_22)))
 (let ((?x2472 (* 5.0 l_1_1_2)))
 (let ((?x2465 (* _a_0_ l_1_1_4)))
 (let ((?x2464 (+ (- (* (- _a_0_) l_1_1_18) (* _a_0_ l_1_1_23)) (* (* 5.0 _a_0_) l_1_1_28))))
 (let ((?x2470 (- (- (+ (- ?x2464 ?x2465) (* (* 5.0 _a_0_) l_1_1_5)) l_1_1_13) l_1_1_15)))
 (let ((?x2357 (- (+ (+ (- ?x2470 l_1_1_19) ?x2472) ?x2352) (* (* l_1_1_24 _a_0_) _a_0_))))
 (= (- (- (- (+ ?x2357 ?x2358) l_1_1_32) ?x2265) ?x2164) 0.0)))))))))))
(assert
 (let ((?x2169 (* l_1_1_38 l_1_1_38)))
 (let ((?x2218 (* l_1_1_37 l_1_1_37)))
 (let ((?x2216 (* l_1_1_36 l_1_1_36)))
 (let ((?x2213 (* 15.0 l_1_1_31)))
 (let ((?x2211 (* 100.0 l_1_1_3)))
 (let ((?x2203 (* 15.0 l_1_1_25)))
 (let ((?x2282 (* _a_2_ l_1_1_4)))
 (let ((?x2240 (- (- (- (* (- _a_2_) l_1_1_18) (* _a_2_ l_1_1_23)) ?x2282) l_1_1_10)))
 (let ((?x2202 (- (- (- ?x2240 l_1_1_12) (* l_1_1_16 (- _a_0_ (* 10.0 _a_4_)))) (* l_1_1_24 (+ (* (* 2.0 _a_0_) _a_2_) (* _a_4_ _a_4_))))))
 (let ((?x2212 (- (- (+ ?x2202 ?x2203) (* l_1_1_28 (+ (* (- 5.0) _a_2_) _a_4_))) ?x2211)))
 (let ((?x2148 (- (- (- (- (+ ?x2212 ?x2213) ?x2216) ?x2218) ?x2169) (* l_1_1_5 (+ (* (- 5.0) _a_2_) _a_4_)))))
 (let ((?x2157 (- (- (- ?x2148 (* l_1_1_7 (- _a_0_ (* 10.0 _a_4_)))) l_1_1_8) l_1_1_9)))
 (= (- ?x2157 (/ 5.0 2.0)) 0.0))))))))))))))
(assert
 (let ((?x1776 (* 10.0 l_1_1_9)))
 (let ((?x1773 (* 10.0 l_1_1_8)))
 (let ((?x1768 (* 50.0 l_1_1_31)))
 (let ((?x1762 (* 50.0 l_1_1_25)))
 (let ((?x1869 (* 10.0 l_1_1_12)))
 (let ((?x1866 (* 10.0 l_1_1_10)))
 (let ((?x1863 (* _a_4_ l_1_1_4)))
 (let ((?x1862 (* _a_4_ l_1_1_23)))
 (let ((?x1861 (* _a_4_ l_1_1_18)))
 (let ((?x1860 (+ (* (* (* (- 2.0) _a_0_) _a_4_) l_1_1_24) (* (* 10.0 _a_0_) l_1_1_16))))
 (let ((?x1864 (- (- (- (+ ?x1860 (* (* 10.0 _a_0_) l_1_1_7)) ?x1861) ?x1862) ?x1863)))
 (let ((?x1766 (- (- (- (- (+ (+ ?x1864 ?x1866) ?x1869) l_1_1_2) l_1_1_22) ?x1762) (* l_1_1_28 (- _a_0_ (* 5.0 _a_4_))))))
 (let ((?x1772 (- (- (- (- ?x1766 l_1_1_30) ?x1768) (* (* 2.0 l_1_1_33) l_1_1_36)) (* l_1_1_5 (- _a_0_ (* 5.0 _a_4_))))))
 (= (- (+ (+ ?x1772 ?x1773) ?x1776) 4.0) 0.0)))))))))))))))
(assert
 (let ((?x1497 (* 10.0 l_1_1_29)))
 (let ((?x1494 (* 10.0 l_1_1_26)))
 (let ((?x1492 (* 50.0 l_1_1_21)))
 (let ((?x1490 (* 50.0 l_1_1_11)))
 (let ((?x1488 (* 10.0 l_1_1_1)))
 (let ((?x1485 (* _a_1_ l_1_1_4)))
 (let ((?x1479 (* _a_1_ l_1_1_23)))
 (let ((?x1476 (* _a_1_ l_1_1_18)))
 (let ((?x1575 (+ (* (* (* (- 2.0) _a_0_) _a_1_) l_1_1_24) (* (* 10.0 _a_0_) l_1_1_17))))
 (let ((?x1484 (+ (- (- (+ ?x1575 (* (* 10.0 _a_0_) l_1_1_20)) ?x1476) ?x1479) (* (* 5.0 _a_1_) l_1_1_28))))
 (let ((?x1491 (- (+ (+ (- ?x1484 ?x1485) (* (* 5.0 _a_1_) l_1_1_5)) ?x1488) ?x1490)))
 (let ((?x1501 (- (+ (+ (- ?x1491 ?x1492) ?x1494) ?x1497) (* (* 2.0 l_1_1_33) l_1_1_34))))
 (= (+ ?x1501 1.0) 0.0))))))))))))))
(assert
 (let ((?x1275 (* l_1_1_35 l_1_1_35)))
 (let ((?x1272 (* l_1_1_34 l_1_1_34)))
 (let ((?x1303 (* 5.0 l_1_1_21)))
 (let ((?x1292 (* 100.0 l_1_1_14)))
 (let ((?x1290 (* 5.0 l_1_1_11)))
 (let ((?x1373 (* _a_5_ l_1_1_4)))
 (let ((?x1372 (+ (- (* (- _a_5_) l_1_1_18) (* _a_5_ l_1_1_23)) (* (* 5.0 _a_5_) l_1_1_28))))
 (let ((?x1291 (+ (- (+ (- ?x1372 ?x1373) (* (* 5.0 _a_5_) l_1_1_5)) l_1_1_1) ?x1290)))
 (let ((?x1302 (- (- (- ?x1291 ?x1292) (* l_1_1_17 (- _a_0_ (* 10.0 _a_1_)))) (* l_1_1_20 (- _a_0_ (* 10.0 _a_1_))))))
 (let ((?x1269 (- (+ ?x1302 ?x1303) (* l_1_1_24 (+ (* (* 2.0 _a_0_) _a_5_) (* _a_1_ _a_1_))))))
 (= (- (- (- (- ?x1269 l_1_1_26) l_1_1_29) ?x1272) ?x1275) 0.0))))))))))))
(assert
 (let ((?x491 (* 20.0 l_1_1_3)))
 (let ((?x2051 (* _a_2_ l_1_1_5)))
 (let ((?x2104 (* _a_2_ l_1_1_28)))
 (let ((?x1002 (- (- (- (* (* (* (- 2.0) _a_2_) _a_4_) l_1_1_24) ?x2104) ?x2051) (* l_1_1_16 (+ (* (- 10.0) _a_2_) _a_4_)))))
 (let ((?x1005 (- (- (+ (- ?x1002 l_1_1_25) ?x491) l_1_1_31) (* l_1_1_7 (+ (* (- 10.0) _a_2_) _a_4_)))))
 (= ?x1005 0.0)))))))
(assert
 (let ((?x838 (- (- (* (- _a_2_) l_1_1_16) (* _a_2_ l_1_1_7)) (* (* l_1_1_24 _a_2_) _a_2_))))
 (= (- ?x838 l_1_1_3) 0.0)))
(assert
 (let ((?x721 (* 100.0 l_1_1_6)))
 (let ((?x711 (* 100.0 l_1_1_27)))
 (let ((?x565 (+ (* (* 2.0 _a_0_) _a_3_) (* (* 2.0 _a_1_) _a_4_))))
 (let ((?x705 (* 10.0 l_1_1_21)))
 (let ((?x703 (* 10.0 l_1_1_11)))
 (let ((?x800 (* _a_3_ l_1_1_4)))
 (let ((?x797 (* _a_3_ l_1_1_23)))
 (let ((?x794 (* _a_3_ l_1_1_18)))
 (let ((?x792 (+ (* (* 10.0 _a_1_) l_1_1_16) (* (* 10.0 _a_1_) l_1_1_7))))
 (let ((?x701 (+ (- (- (- ?x792 ?x794) ?x797) ?x800) (* (* 10.0 _a_4_) l_1_1_17))))
 (let ((?x710 (- (+ (+ (+ ?x701 (* (* 10.0 _a_4_) l_1_1_20)) ?x703) ?x705) (* l_1_1_24 ?x565))))
 (let ((?x717 (- (- (- ?x710 ?x711) (* l_1_1_28 (- _a_1_ (* 5.0 _a_3_)))) (* (* 2.0 l_1_1_34) l_1_1_36))))
 (let ((?x720 (- (- ?x717 (* (* 2.0 l_1_1_35) l_1_1_37)) (* l_1_1_5 (- _a_1_ (* 5.0 _a_3_))))))
 (= (- ?x720 ?x721) 0.0)))))))))))))))
(assert
 (let ((?x426 (* 10.0 l_1_1_6)))
 (let ((?x24 (* 10.0 l_1_1_27)))
 (let ((?x441 (+ (* (* 2.0 _a_1_) _a_2_) (* (* 2.0 _a_3_) _a_4_))))
 (let ((?x463 (* _a_3_ l_1_1_5)))
 (let ((?x483 (* _a_3_ l_1_1_28)))
 (let ((?x446 (+ (* (* 10.0 _a_2_) l_1_1_17) (* (* 10.0 _a_2_) l_1_1_20))))
 (let ((?x443 (- (- (- ?x446 ?x483) ?x463) (* l_1_1_16 (- _a_1_ (* 10.0 _a_3_))))))
 (let ((?x428 (- (+ (+ (- ?x443 (* l_1_1_24 ?x441)) ?x24) ?x426) (* l_1_1_7 (- _a_1_ (* 10.0 _a_3_))))))
 (= ?x428 0.0))))))))))
(assert
 (let ((?x426 (* 10.0 l_1_1_6)))
 (let ((?x24 (* 10.0 l_1_1_27)))
 (let ((?x269 (+ (* (* 2.0 _a_1_) _a_3_) (* (* 2.0 _a_4_) _a_5_))))
 (let ((?x1262 (* _a_5_ l_1_1_5)))
 (let ((?x286 (+ (- (- (* (* 10.0 _a_5_) l_1_1_16) (* _a_5_ l_1_1_28)) ?x1262) (* (* 10.0 _a_5_) l_1_1_7))))
 (let ((?x38 (- (- (- ?x286 l_1_1_11) (* l_1_1_17 (+ (* (- 10.0) _a_3_) _a_4_))) (* l_1_1_20 (+ (* (- 10.0) _a_3_) _a_4_)))))
 (= (+ (+ (- (- ?x38 l_1_1_21) (* l_1_1_24 ?x269)) ?x24) ?x426) 0.0))))))))
(assert
 (let ((?x227 (* _a_5_ l_1_1_7)))
 (let ((?x221 (* _a_5_ l_1_1_16)))
 (let ((?x2408 (- (- (- (* (- _a_2_) l_1_1_17) (* _a_2_ l_1_1_20)) ?x221) ?x227)))
 (let ((?x1584 (- ?x2408 (* l_1_1_24 (+ (* (* 2.0 _a_2_) _a_5_) (* _a_3_ _a_3_))))))
 (= (- (- ?x1584 l_1_1_27) l_1_1_6) 0.0))))))
(assert
 (let ((?x317 (* _a_3_ l_1_1_7)))
 (let ((?x350 (* _a_3_ l_1_1_16)))
 (= (- (- (* (* (* (- 2.0) _a_2_) _a_3_) l_1_1_24) ?x350) ?x317) 0.0))))
(assert
 (let ((?x549 (* 20.0 l_1_1_14)))
 (let ((?x203 (- (+ (* (* (* (- 2.0) _a_1_) _a_5_) l_1_1_24) ?x549) (* l_1_1_17 (- _a_1_ (* 10.0 _a_5_))))))
 (= (- ?x203 (* l_1_1_20 (- _a_1_ (* 10.0 _a_5_)))) 0.0))))
(assert
 (let ((?x2190 (- (- (- (* (- _a_5_) l_1_1_17) (* _a_5_ l_1_1_20)) l_1_1_14) (* (* l_1_1_24 _a_5_) _a_5_))))
 (= ?x2190 0.0)))
(assert
 (let ((?x140 (* _a_3_ l_1_1_20)))
 (let ((?x189 (* _a_3_ l_1_1_17)))
 (= (- (- (* (* (* (- 2.0) _a_3_) _a_5_) l_1_1_24) ?x189) ?x140) 0.0))))
(assert
 (>= l_1_1_1 0.0))
(assert
 (>= l_1_1_2 0.0))
(assert
 (>= l_1_1_3 0.0))
(assert
 (>= l_1_1_4 0.0))
(assert
 (>= l_1_1_5 0.0))
(assert
 (>= l_1_1_6 0.0))
(assert
 (>= l_1_1_7 0.0))
(assert
 (>= l_1_1_8 0.0))
(assert
 (>= l_1_1_9 0.0))
(assert
 (>= l_1_1_10 0.0))
(assert
 (>= l_1_1_11 0.0))
(assert
 (>= l_1_1_12 0.0))
(assert
 (>= l_1_1_13 0.0))
(assert
 (>= l_1_1_14 0.0))
(assert
 (>= l_1_1_15 0.0))
(assert
 (>= l_1_1_16 0.0))
(assert
 (>= l_1_1_17 0.0))
(assert
 (>= l_1_1_18 0.0))
(assert
 (>= l_1_1_19 0.0))
(assert
 (>= l_1_1_20 0.0))
(assert
 (>= l_1_1_21 0.0))
(assert
 (>= l_1_1_22 0.0))
(assert
 (>= l_1_1_23 0.0))
(assert
 (>= l_1_1_24 0.0))
(assert
 (>= l_1_1_25 0.0))
(assert
 (>= l_1_1_26 0.0))
(assert
 (>= l_1_1_27 0.0))
(assert
 (>= l_1_1_28 0.0))
(assert
 (>= l_1_1_29 0.0))
(assert
 (>= l_1_1_30 0.0))
(assert
 (>= l_1_1_31 0.0))
(assert
 (>= l_1_1_32 0.0))
(assert
 (>= l_1_1_33 0.0))
(assert
 (>= l_1_1_35 0.0))
(assert
 (>= l_1_1_38 0.0))
(assert
 (let ((?x1156 (* l_1_2_45 l_1_2_45)))
 (let ((?x340 (* 5.0 l_1_2_31)))
 (let ((?x346 (* 5.0 l_1_2_15)))
 (let ((?x1839 (* 25.0 l_1_2_13)))
 (let ((?x1837 (* 5.0 l_1_2_10)))
 (let ((?x1841 (* 5.0 l_1_2_1)))
 (let ((?x1818 (* _a_0_ l_1_2_41)))
 (let ((?x1803 (* _a_0_ l_1_2_38)))
 (let ((?x1799 (* _a_0_ l_1_2_35)))
 (let ((?x1797 (* _a_0_ l_1_2_33)))
 (let ((?x1800 (- (- (- (* (* 5.0 _a_0_) l_1_2_12) (* _a_0_ l_1_2_18)) ?x1797) ?x1799)))
 (let ((?x1836 (+ (- (+ (- ?x1800 ?x1803) (* (* 5.0 _a_0_) l_1_2_4)) ?x1818) ?x1841)))
 (let ((?x328 (- (- (- (+ (- (+ ?x1836 ?x1837) ?x1839) ?x346) l_1_2_19) l_1_2_21) l_1_2_27)))
 (let ((?x347 (- (- (+ (- ?x328 (* (* l_1_2_30 _a_0_) _a_0_)) ?x340) l_1_2_32) l_1_2_34)))
 (let ((?x1135 (+ (- (- (- (- ?x347 l_1_2_44) ?x1156) l_1_2_5) l_1_2_8) (* 5.0 l_1_2_9))))
 (= ?x1135 0.0)))))))))))))))))
(assert
 (let ((?x2825 (* 50.0 l_1_2_39)))
 (let ((?x2823 (* 10.0 l_1_2_36)))
 (let ((?x672 (* 10.0 l_1_2_29)))
 (let ((?x2485 (* 50.0 l_1_2_25)))
 (let ((?x1461 (* 10.0 l_1_2_23)))
 (let ((?x1458 (* 10.0 l_1_2_20)))
 (let ((?x1517 (* 10.0 l_1_2_16)))
 (let ((?x972 (* _a_1_ l_1_2_41)))
 (let ((?x956 (* _a_1_ l_1_2_38)))
 (let ((?x949 (* _a_1_ l_1_2_35)))
 (let ((?x943 (* _a_1_ l_1_2_33)))
 (let ((?x941 (* _a_1_ l_1_2_18)))
 (let ((?x1106 (+ (* (* (* (- 2.0) _a_0_) _a_1_) l_1_2_30) (* (* 10.0 _a_0_) l_1_2_11))))
 (let ((?x940 (+ (+ ?x1106 (* (* 10.0 _a_0_) l_1_2_3)) (* (* 5.0 _a_1_) l_1_2_12))))
 (let ((?x963 (+ (- (- (- (- ?x940 ?x941) ?x943) ?x949) ?x956) (* (* 5.0 _a_1_) l_1_2_4))))
 (let ((?x2824 (+ (+ (- (+ (+ (+ (- ?x963 ?x972) ?x1517) ?x1458) ?x1461) ?x2485) ?x672) ?x2823)))
 (= (- (- (- ?x2824 ?x2825) (* (* 2.0 l_1_2_45) l_1_2_46)) 1.0) 0.0))))))))))))))))))
(assert
 (let ((?x2606 (* l_1_2_50 l_1_2_50)))
 (let ((?x1109 (* l_1_2_49 l_1_2_49)))
 (let ((?x383 (* l_1_2_48 l_1_2_48)))
 (let ((?x375 (* 15.0 l_1_2_40)))
 (let ((?x2849 (* 100.0 l_1_2_2)))
 (let ((?x2076 (* _a_2_ l_1_2_41)))
 (let ((?x2074 (* _a_2_ l_1_2_38)))
 (let ((?x2078 (* _a_2_ l_1_2_35)))
 (let ((?x2075 (- (- (- (* (- _a_2_) l_1_2_18) (* _a_2_ l_1_2_33)) ?x2078) ?x2074)))
 (let ((?x2847 (- (- (- ?x2075 ?x2076) (* l_1_2_12 (+ (* (- 5.0) _a_2_) _a_4_))) l_1_2_13)))
 (let ((?x1636 (- (- (- (- ?x2847 l_1_2_14) l_1_2_17) ?x2849) (* l_1_2_24 (- _a_0_ (* 10.0 _a_4_))))))
 (let ((?x1634 (- (- ?x1636 (* l_1_2_28 (- _a_0_ (* 10.0 _a_4_)))) (* l_1_2_30 (+ (* (* 2.0 _a_0_) _a_2_) (* _a_4_ _a_4_))))))
 (let ((?x376 (+ (- (- ?x1634 l_1_2_37) (* l_1_2_4 (+ (* (- 5.0) _a_2_) _a_4_))) ?x375)))
 (let ((?x1020 (+ (- (- (- (- (- ?x376 l_1_2_42) l_1_2_43) ?x383) ?x1109) ?x2606) (* 15.0 l_1_2_7))))
 (= (+ ?x1020 (/ 7.0 2.0)) 0.0))))))))))))))))
(assert
 (let ((?x2068 (* 50.0 l_1_2_7)))
 (let ((?x1722 (* 10.0 l_1_2_43)))
 (let ((?x1720 (* 10.0 l_1_2_42)))
 (let ((?x1533 (* 50.0 l_1_2_40)))
 (let ((?x1529 (* 10.0 l_1_2_37)))
 (let ((?x2224 (* 10.0 l_1_2_17)))
 (let ((?x2483 (* 10.0 l_1_2_14)))
 (let ((?x2481 (* 10.0 l_1_2_13)))
 (let ((?x2251 (* _a_4_ l_1_2_41)))
 (let ((?x2246 (* _a_4_ l_1_2_38)))
 (let ((?x2238 (* _a_4_ l_1_2_35)))
 (let ((?x2229 (* _a_4_ l_1_2_33)))
 (let ((?x2226 (* _a_4_ l_1_2_18)))
 (let ((?x2614 (+ (* (* (* (- 2.0) _a_0_) _a_4_) l_1_2_30) (* (* 10.0 _a_0_) l_1_2_24))))
 (let ((?x2244 (- (- (- (+ ?x2614 (* (* 10.0 _a_0_) l_1_2_28)) ?x2226) ?x2229) ?x2238)))
 (let ((?x2478 (- (- (- (- (- ?x2244 ?x2246) ?x2251) l_1_2_1) l_1_2_10) (* l_1_2_12 (- _a_0_ (* 5.0 _a_4_))))))
 (let ((?x1532 (+ (- (+ (- (+ (+ ?x2478 ?x2481) ?x2483) l_1_2_15) ?x2224) l_1_2_31) ?x1529)))
 (let ((?x1721 (+ (- (- ?x1532 (* l_1_2_4 (- _a_0_ (* 5.0 _a_4_)))) ?x1533) ?x1720)))
 (let ((?x2421 (- (- (- (+ ?x1721 ?x1722) (* (* 2.0 l_1_2_45) l_1_2_48)) ?x2068) l_1_2_9)))
 (= (+ ?x2421 3.0) 0.0)))))))))))))))))))))
(assert
 (let ((?x955 (* 20.0 l_1_2_2)))
 (let ((?x2029 (* _a_2_ l_1_2_4)))
 (let ((?x1967 (* _a_2_ l_1_2_12)))
 (let ((?x2780 (+ (- (- (* (* (* (- 2.0) _a_2_) _a_4_) l_1_2_30) ?x1967) ?x2029) ?x955)))
 (let ((?x2003 (- (- ?x2780 (* l_1_2_24 (+ (* (- 10.0) _a_2_) _a_4_))) (* l_1_2_28 (+ (* (- 10.0) _a_2_) _a_4_)))))
 (= (- (- ?x2003 l_1_2_40) l_1_2_7) 0.0)))))))
(assert
 (let ((?x2082 (- (- (- (* (- _a_2_) l_1_2_24) (* _a_2_ l_1_2_28)) l_1_2_2) (* (* l_1_2_30 _a_2_) _a_2_))))
 (= ?x2082 0.0)))
(assert
 (let ((?x747 (* l_1_2_47 l_1_2_47)))
 (let ((?x2691 (* l_1_2_46 l_1_2_46)))
 (let ((?x2689 (* 5.0 l_1_2_39)))
 (let ((?x812 (* 5.0 l_1_2_25)))
 (let ((?x884 (* 100.0 l_1_2_22)))
 (let ((?x2633 (* _a_5_ l_1_2_41)))
 (let ((?x271 (* _a_5_ l_1_2_38)))
 (let ((?x1947 (* _a_5_ l_1_2_35)))
 (let ((?x1945 (* _a_5_ l_1_2_33)))
 (let ((?x1948 (- (- (- (* (* 5.0 _a_5_) l_1_2_12) (* _a_5_ l_1_2_18)) ?x1945) ?x1947)))
 (let ((?x881 (- (- (+ (- ?x1948 ?x271) (* (* 5.0 _a_5_) l_1_2_4)) ?x2633) (* l_1_2_11 (- _a_0_ (* 10.0 _a_1_))))))
 (let ((?x2010 (- (+ (- (- (- (- ?x881 l_1_2_16) l_1_2_20) ?x884) l_1_2_23) ?x812) l_1_2_29)))
 (let ((?x2009 (- (- ?x2010 (* l_1_2_3 (- _a_0_ (* 10.0 _a_1_)))) (* l_1_2_30 (+ (* (* 2.0 _a_0_) _a_5_) (* _a_1_ _a_1_))))))
 (= (- (- (+ (- ?x2009 l_1_2_36) ?x2689) ?x2691) ?x747) 0.0)))))))))))))))
(assert
 (let ((?x767 (* 20.0 l_1_2_22)))
 (let ((?x766 (- (* (* (* (- 2.0) _a_1_) _a_5_) l_1_2_30) (* l_1_2_11 (- _a_1_ (* 10.0 _a_5_))))))
 (= (- (+ ?x766 ?x767) (* l_1_2_3 (- _a_1_ (* 10.0 _a_5_)))) 0.0))))
(assert
 (let ((?x247 (* 10.0 l_1_2_6)))
 (let ((?x441 (+ (* (* 2.0 _a_1_) _a_2_) (* (* 2.0 _a_3_) _a_4_))))
 (let ((?x2492 (* 10.0 l_1_2_26)))
 (let ((?x868 (* _a_3_ l_1_2_4)))
 (let ((?x1930 (* _a_3_ l_1_2_12)))
 (let ((?x1929 (+ (* (* 10.0 _a_2_) l_1_2_11) (* (* 10.0 _a_2_) l_1_2_3))))
 (let ((?x2490 (- (- (- ?x1929 ?x1930) ?x868) (* l_1_2_24 (- _a_1_ (* 10.0 _a_3_))))))
 (let ((?x246 (- (- (+ ?x2490 ?x2492) (* l_1_2_28 (- _a_1_ (* 10.0 _a_3_)))) (* l_1_2_30 ?x441))))
 (= (+ ?x246 ?x247) 0.0))))))))))
(assert
 (let ((?x548 (* _a_5_ l_1_2_28)))
 (let ((?x332 (* _a_5_ l_1_2_24)))
 (let ((?x2710 (- (- (- (* (- _a_2_) l_1_2_11) (* _a_2_ l_1_2_3)) ?x332) ?x548)))
 (let ((?x1245 (- (- ?x2710 l_1_2_26) (* l_1_2_30 (+ (* (* 2.0 _a_2_) _a_5_) (* _a_3_ _a_3_))))))
 (= (- ?x1245 l_1_2_6) 0.0))))))
(assert
 (let ((?x247 (* 10.0 l_1_2_6)))
 (let ((?x269 (+ (* (* 2.0 _a_1_) _a_3_) (* (* 2.0 _a_4_) _a_5_))))
 (let ((?x2492 (* 10.0 l_1_2_26)))
 (let ((?x1665 (* _a_5_ l_1_2_4)))
 (let ((?x1890 (+ (+ (* (- _a_5_) l_1_2_12) (* (* 10.0 _a_5_) l_1_2_24)) (* (* 10.0 _a_5_) l_1_2_28))))
 (let ((?x2428 (- (- (- ?x1890 ?x1665) (* l_1_2_11 (+ (* (- 10.0) _a_3_) _a_4_))) l_1_2_25)))
 (let ((?x2829 (- (- (+ ?x2428 ?x2492) (* l_1_2_3 (+ (* (- 10.0) _a_3_) _a_4_))) (* l_1_2_30 ?x269))))
 (= (+ (- ?x2829 l_1_2_39) ?x247) 0.0)))))))))
(assert
 (let ((?x589 (* _a_3_ l_1_2_3)))
 (let ((?x2446 (* _a_3_ l_1_2_11)))
 (= (- (- (* (* (* (- 2.0) _a_3_) _a_5_) l_1_2_30) ?x2446) ?x589) 0.0))))
(assert
 (let ((?x1467 (* 100.0 l_1_2_6)))
 (let ((?x2430 (* 10.0 l_1_2_39)))
 (let ((?x565 (+ (* (* 2.0 _a_0_) _a_3_) (* (* 2.0 _a_1_) _a_4_))))
 (let ((?x2057 (* 100.0 l_1_2_26)))
 (let ((?x1961 (* 10.0 l_1_2_25)))
 (let ((?x1283 (* _a_3_ l_1_2_41)))
 (let ((?x2032 (* _a_3_ l_1_2_38)))
 (let ((?x1885 (* _a_3_ l_1_2_35)))
 (let ((?x592 (* _a_3_ l_1_2_33)))
 (let ((?x1214 (* _a_3_ l_1_2_18)))
 (let ((?x1213 (+ (* (* 10.0 _a_1_) l_1_2_24) (* (* 10.0 _a_1_) l_1_2_28))))
 (let ((?x680 (+ (- (- (- (- (- ?x1213 ?x1214) ?x592) ?x1885) ?x2032) ?x1283) (* (* 10.0 _a_4_) l_1_2_11))))
 (let ((?x960 (- (+ ?x680 (* (* 10.0 _a_4_) l_1_2_3)) (* l_1_2_12 (- _a_1_ (* 5.0 _a_3_))))))
 (let ((?x1019 (- (+ (- (- (+ ?x960 ?x1961) ?x2057) (* l_1_2_30 ?x565)) ?x2430) (* l_1_2_4 (- _a_1_ (* 5.0 _a_3_))))))
 (let ((?x1465 (- (- ?x1019 (* (* 2.0 l_1_2_46) l_1_2_48)) (* (* 2.0 l_1_2_47) l_1_2_49))))
 (= (- ?x1465 ?x1467) 0.0)))))))))))))))))
(assert
 (let ((?x1076 (- (- (- (* (- _a_5_) l_1_2_11) (* _a_5_ l_1_2_3)) l_1_2_22) (* (* l_1_2_30 _a_5_) _a_5_))))
 (= ?x1076 0.0)))
(assert
 (let ((?x2705 (* _a_3_ l_1_2_28)))
 (let ((?x2914 (* _a_3_ l_1_2_24)))
 (= (- (- (* (* (* (- 2.0) _a_2_) _a_3_) l_1_2_30) ?x2914) ?x2705) 0.0))))
(assert
 (>= l_1_2_1 0.0))
(assert
 (>= l_1_2_2 0.0))
(assert
 (>= l_1_2_3 0.0))
(assert
 (>= l_1_2_4 0.0))
(assert
 (>= l_1_2_5 0.0))
(assert
 (>= l_1_2_6 0.0))
(assert
 (>= l_1_2_7 0.0))
(assert
 (>= l_1_2_8 0.0))
(assert
 (>= l_1_2_9 0.0))
(assert
 (>= l_1_2_10 0.0))
(assert
 (>= l_1_2_11 0.0))
(assert
 (>= l_1_2_12 0.0))
(assert
 (>= l_1_2_13 0.0))
(assert
 (>= l_1_2_14 0.0))
(assert
 (>= l_1_2_15 0.0))
(assert
 (>= l_1_2_16 0.0))
(assert
 (>= l_1_2_17 0.0))
(assert
 (>= l_1_2_18 0.0))
(assert
 (>= l_1_2_19 0.0))
(assert
 (>= l_1_2_20 0.0))
(assert
 (>= l_1_2_21 0.0))
(assert
 (>= l_1_2_22 0.0))
(assert
 (>= l_1_2_23 0.0))
(assert
 (>= l_1_2_24 0.0))
(assert
 (>= l_1_2_25 0.0))
(assert
 (>= l_1_2_26 0.0))
(assert
 (>= l_1_2_27 0.0))
(assert
 (>= l_1_2_28 0.0))
(assert
 (>= l_1_2_29 0.0))
(assert
 (>= l_1_2_30 0.0))
(assert
 (>= l_1_2_31 0.0))
(assert
 (>= l_1_2_32 0.0))
(assert
 (>= l_1_2_33 0.0))
(assert
 (>= l_1_2_34 0.0))
(assert
 (>= l_1_2_35 0.0))
(assert
 (>= l_1_2_36 0.0))
(assert
 (>= l_1_2_37 0.0))
(assert
 (>= l_1_2_38 0.0))
(assert
 (>= l_1_2_39 0.0))
(assert
 (>= l_1_2_40 0.0))
(assert
 (>= l_1_2_41 0.0))
(assert
 (>= l_1_2_42 0.0))
(assert
 (>= l_1_2_43 0.0))
(assert
 (>= l_1_2_44 0.0))
(assert
 (>= l_1_2_45 0.0))
(assert
 (>= l_1_2_47 0.0))
(assert
 (>= l_1_2_50 0.0))
(assert
 (let ((?x1473 (* l_1_3_33 l_1_3_33)))
 (let ((?x1470 (* 5.0 l_1_3_29)))
 (let ((?x1536 (* 5.0 l_1_3_27)))
 (let ((?x1647 (* 25.0 l_1_3_22)))
 (let ((?x1645 (* 5.0 l_1_3_21)))
 (let ((?x1682 (* (/ 121.0 4.0) _a_5_)))
 (let ((?x1759 (* (/ 11.0 2.0) _a_3_)))
 (let ((?x1858 (* (/ 11.0 2.0) _a_1_)))
 (let ((?x1852 (* _a_0_ l_1_3_5)))
 (let ((?x1912 (- (- (* (- _a_0_) l_1_3_23) (* _a_0_ l_1_3_25)) (* (* 5.0 _a_0_) l_1_3_26))))
 (let ((?x1756 (+ (+ (- (- ?x1912 ?x1852) (* (* 5.0 _a_0_) l_1_3_7)) _a_0_) ?x1858)))
 (let ((?x1683 (+ (+ (+ (+ ?x1756 (* 1.0 _a_2_)) ?x1759) (* 1.0 _a_4_)) ?x1682)))
 (let ((?x1540 (- (- (- (- (- (- ?x1683 l_1_3_10) l_1_3_18) ?x1645) ?x1647) ?x1536) (* (* l_1_3_28 _a_0_) _a_0_))))
 (= (- (- (- (- ?x1540 ?x1470) l_1_3_32) ?x1473) l_1_3_6) 0.0)))))))))))))))
(assert
 (let ((?x150 (* 10.0 l_1_3_4)))
 (let ((?x156 (* 10.0 l_1_3_30)))
 (let ((?x143 (* 10.0 l_1_3_20)))
 (let ((?x149 (* 50.0 l_1_3_17)))
 (let ((?x162 (* 50.0 l_1_3_13)))
 (let ((?x214 (* 11.0 _a_5_)))
 (let ((?x395 (* _a_1_ l_1_3_5)))
 (let ((?x423 (* _a_1_ l_1_3_25)))
 (let ((?x421 (* _a_1_ l_1_3_23)))
 (let ((?x474 (- (* (* (* (- 2.0) _a_0_) _a_1_) l_1_3_28) (* (* 10.0 _a_0_) l_1_3_19))))
 (let ((?x394 (- (- (- (- ?x474 (* (* 10.0 _a_0_) l_1_3_3)) ?x421) ?x423) (* (* 5.0 _a_1_) l_1_3_26))))
 (let ((?x262 (+ (+ (- (- ?x394 ?x395) (* (* 5.0 _a_1_) l_1_3_7)) _a_1_) (* 1.0 _a_3_))))
 (let ((?x152 (- (- (- (- (- (+ ?x262 ?x214) ?x162) ?x149) ?x143) ?x156) (* (* 2.0 l_1_3_33) l_1_3_34))))
 (= (- ?x152 ?x150) 0.0)))))))))))))))
(assert
 (let ((?x3053 (* 50.0 l_1_3_24)))
 (let ((?x3051 (* 10.0 l_1_3_22)))
 (let ((?x3048 (* 10.0 l_1_3_16)))
 (let ((?x3046 (* 10.0 l_1_3_15)))
 (let ((?x3044 (* 10.0 l_1_3_12)))
 (let ((?x3042 (* 50.0 l_1_3_1)))
 (let ((?x3040 (* (/ 121.0 2.0) _a_5_)))
 (let ((?x3036 (* _a_4_ l_1_3_5)))
 (let ((?x3034 (* _a_4_ l_1_3_25)))
 (let ((?x3032 (* _a_4_ l_1_3_23)))
 (let ((?x3030 (* 11.0 _a_3_)))
 (let ((?x2415 (* 2.0 _a_2_)))
 (let ((?x1858 (* (/ 11.0 2.0) _a_1_)))
 (let ((?x3025 (- (* (* (* (- 2.0) _a_0_) _a_4_) l_1_3_28) (* (* 10.0 _a_0_) l_1_3_31))))
 (let ((?x3031 (+ (+ (+ (- ?x3025 (* (* 10.0 _a_0_) l_1_3_9)) ?x1858) ?x2415) ?x3030)))
 (let ((?x3045 (- (- (+ (+ (- (- (- ?x3031 ?x3032) ?x3034) ?x3036) _a_4_) ?x3040) ?x3042) ?x3044)))
 (let ((?x3057 (- (- (+ (+ (- (- ?x3045 ?x3046) ?x3048) l_1_3_21) ?x3051) ?x3053) (* l_1_3_26 (+ (- _a_0_) (* 5.0 _a_4_))))))
 (let ((?x3061 (- (+ (+ ?x3057 l_1_3_27) l_1_3_29) (* (* 2.0 l_1_3_33) l_1_3_36))))
 (= (- ?x3061 (* l_1_3_7 (+ (- _a_0_) (* 5.0 _a_4_)))) 0.0))))))))))))))))))))
(assert
 (let ((?x3189 (* l_1_3_38 l_1_3_38)))
 (let ((?x3187 (* l_1_3_37 l_1_3_37)))
 (let ((?x3185 (* l_1_3_36 l_1_3_36)))
 (let ((?x3174 (* 15.0 l_1_3_24)))
 (let ((?x3169 (* 100.0 l_1_3_14)))
 (let ((?x3166 (* 15.0 l_1_3_1)))
 (let ((?x1682 (* (/ 121.0 4.0) _a_5_)))
 (let ((?x1759 (* (/ 11.0 2.0) _a_3_)))
 (let ((?x3161 (* _a_2_ l_1_3_5)))
 (let ((?x3163 (+ (- (- (* (- _a_2_) l_1_3_23) (* _a_2_ l_1_3_25)) ?x3161) _a_2_)))
 (let ((?x3171 (+ (- (+ (+ (+ (+ ?x3163 ?x1759) ?x1682) ?x3166) l_1_3_12) ?x3169) l_1_3_15)))
 (let ((?x3179 (- (+ (- (+ ?x3171 l_1_3_16) l_1_3_22) ?x3174) (* l_1_3_26 (- (* 5.0 _a_2_) _a_4_)))))
 (let ((?x3181 (- ?x3179 (* l_1_3_28 (+ (* (* 2.0 _a_0_) _a_2_) (* _a_4_ _a_4_))))))
 (let ((?x3188 (- (- (- ?x3181 (* l_1_3_31 (+ (- _a_0_) (* 10.0 _a_4_)))) ?x3185) ?x3187)))
 (let ((?x3194 (- (- (- ?x3188 ?x3189) (* l_1_3_7 (- (* 5.0 _a_2_) _a_4_))) (* l_1_3_9 (+ (- _a_0_) (* 10.0 _a_4_))))))
 (= ?x3194 0.0)))))))))))))))))
(assert
 (let ((?x3353 (* 100.0 l_1_3_8)))
 (let ((?x565 (+ (* (* 2.0 _a_0_) _a_3_) (* (* 2.0 _a_1_) _a_4_))))
 (let ((?x3337 (* 10.0 l_1_3_17)))
 (let ((?x3335 (* 10.0 l_1_3_13)))
 (let ((?x3333 (* 100.0 l_1_3_11)))
 (let ((?x214 (* 11.0 _a_5_)))
 (let ((?x3325 (* _a_3_ l_1_3_5)))
 (let ((?x3323 (* _a_3_ l_1_3_25)))
 (let ((?x3321 (* _a_3_ l_1_3_23)))
 (let ((?x3320 (- (* (* (- 10.0) _a_1_) l_1_3_31) (* (* 10.0 _a_1_) l_1_3_9))))
 (let ((?x3329 (- (+ (- (- (- ?x3320 ?x3321) ?x3323) ?x3325) _a_3_) (* (* 10.0 _a_4_) l_1_3_19))))
 (let ((?x3336 (+ (- (+ (- ?x3329 (* (* 10.0 _a_4_) l_1_3_3)) ?x214) ?x3333) ?x3335)))
 (let ((?x3344 (- (- (+ ?x3336 ?x3337) (* l_1_3_26 (+ (- _a_1_) (* 5.0 _a_3_)))) (* l_1_3_28 ?x565))))
 (let ((?x3350 (- (- ?x3344 (* (* 2.0 l_1_3_34) l_1_3_36)) (* (* 2.0 l_1_3_35) l_1_3_37))))
 (= (- (- ?x3350 (* l_1_3_7 (+ (- _a_1_) (* 5.0 _a_3_)))) ?x3353) 0.0))))))))))))))))
(assert
 (let ((?x3497 (* l_1_3_35 l_1_3_35)))
 (let ((?x3495 (* l_1_3_34 l_1_3_34)))
 (let ((?x3487 (* 100.0 l_1_3_2)))
 (let ((?x3482 (* 5.0 l_1_3_17)))
 (let ((?x3480 (* 5.0 l_1_3_13)))
 (let ((?x3475 (* _a_5_ l_1_3_5)))
 (let ((?x3474 (- (- (* (- _a_5_) l_1_3_23) (* _a_5_ l_1_3_25)) (* (* 5.0 _a_5_) l_1_3_26))))
 (let ((?x3481 (+ (+ (- (- ?x3474 ?x3475) (* (* 5.0 _a_5_) l_1_3_7)) _a_5_) ?x3480)))
 (let ((?x3488 (- (- (+ ?x3481 ?x3482) (* l_1_3_19 (+ (- _a_0_) (* 10.0 _a_1_)))) ?x3487)))
 (let ((?x3491 (- (+ ?x3488 l_1_3_20) (* l_1_3_28 (+ (* (* 2.0 _a_0_) _a_5_) (* _a_1_ _a_1_))))))
 (let ((?x3494 (+ (- ?x3491 (* l_1_3_3 (+ (- _a_0_) (* 10.0 _a_1_)))) l_1_3_30)))
 (= (+ (- (- ?x3494 ?x3495) ?x3497) l_1_3_4) 0.0)))))))))))))
(assert
 (let ((?x3596 (* 20.0 l_1_3_14)))
 (let ((?x3285 (* _a_2_ l_1_3_7)))
 (let ((?x3221 (* _a_2_ l_1_3_26)))
 (let ((?x3595 (- (+ (+ (* (* (* (- 2.0) _a_2_) _a_4_) l_1_3_28) ?x3221) ?x3285) l_1_3_1)))
 (let ((?x3601 (- (- (+ ?x3595 ?x3596) l_1_3_24) (* l_1_3_31 (- (* 10.0 _a_2_) _a_4_)))))
 (= (- ?x3601 (* l_1_3_9 (- (* 10.0 _a_2_) _a_4_))) 0.0)))))))
(assert
 (let ((?x3662 (* 20.0 l_1_3_2)))
 (let ((?x3661 (- (* (* (* (- 2.0) _a_1_) _a_5_) l_1_3_28) (* l_1_3_19 (+ (- _a_1_) (* 10.0 _a_5_))))))
 (= (- (+ ?x3661 ?x3662) (* l_1_3_3 (+ (- _a_1_) (* 10.0 _a_5_)))) 0.0))))
(assert
 (let ((?x3712 (- (- (+ (* _a_5_ l_1_3_19) (* _a_5_ l_1_3_3)) l_1_3_2) (* (* l_1_3_28 _a_5_) _a_5_))))
 (= ?x3712 0.0)))
(assert
 (let ((?x3737 (* 10.0 l_1_3_8)))
 (let ((?x441 (+ (* (* 2.0 _a_1_) _a_2_) (* (* 2.0 _a_3_) _a_4_))))
 (let ((?x3730 (* 10.0 l_1_3_11)))
 (let ((?x3454 (* _a_3_ l_1_3_7)))
 (let ((?x3402 (* _a_3_ l_1_3_26)))
 (let ((?x3727 (- (* (* (- 10.0) _a_2_) l_1_3_19) (* (* 10.0 _a_2_) l_1_3_3))))
 (let ((?x3736 (- (- (+ (+ (+ ?x3727 ?x3402) ?x3454) ?x3730) (* l_1_3_28 ?x441)) (* l_1_3_31 (+ (- _a_1_) (* 10.0 _a_3_))))))
 (= (- (+ ?x3736 ?x3737) (* l_1_3_9 (+ (- _a_1_) (* 10.0 _a_3_)))) 0.0)))))))))
(assert
 (let ((?x3816 (* _a_5_ l_1_3_9)))
 (let ((?x3814 (* _a_5_ l_1_3_31)))
 (let ((?x3818 (- (+ (+ (+ (* _a_2_ l_1_3_19) (* _a_2_ l_1_3_3)) ?x3814) ?x3816) l_1_3_11)))
 (let ((?x3820 (- ?x3818 (* l_1_3_28 (+ (* (* 2.0 _a_2_) _a_5_) (* _a_3_ _a_3_))))))
 (= (- ?x3820 l_1_3_8) 0.0))))))
(assert
 (let ((?x3737 (* 10.0 l_1_3_8)))
 (let ((?x269 (+ (* (* 2.0 _a_1_) _a_3_) (* (* 2.0 _a_4_) _a_5_))))
 (let ((?x3730 (* 10.0 l_1_3_11)))
 (let ((?x3515 (* _a_5_ l_1_3_7)))
 (let ((?x3857 (- (+ (- (* _a_5_ l_1_3_26) (* (* 10.0 _a_5_) l_1_3_31)) ?x3515) (* (* 10.0 _a_5_) l_1_3_9))))
 (let ((?x3863 (- (- (- (+ ?x3857 ?x3730) l_1_3_13) l_1_3_17) (* l_1_3_19 (- (* 10.0 _a_3_) _a_4_)))))
 (let ((?x3867 (- (- ?x3863 (* l_1_3_28 ?x269)) (* l_1_3_3 (- (* 10.0 _a_3_) _a_4_)))))
 (= (+ ?x3867 ?x3737) 0.0)))))))))
(assert
 (let ((?x3931 (* _a_3_ l_1_3_3)))
 (let ((?x3894 (* _a_3_ l_1_3_19)))
 (= (+ (+ (* (* (* (- 2.0) _a_3_) _a_5_) l_1_3_28) ?x3894) ?x3931) 0.0))))
(assert
 (let ((?x3951 (- (- (+ (* _a_2_ l_1_3_31) (* _a_2_ l_1_3_9)) l_1_3_14) (* (* l_1_3_28 _a_2_) _a_2_))))
 (= ?x3951 0.0)))
(assert
 (let ((?x3801 (* _a_3_ l_1_3_9)))
 (let ((?x3781 (* _a_3_ l_1_3_31)))
 (= (+ (+ (* (* (* (- 2.0) _a_2_) _a_3_) l_1_3_28) ?x3781) ?x3801) 0.0))))
(assert
 (>= l_1_3_1 0.0))
(assert
 (>= l_1_3_2 0.0))
(assert
 (>= l_1_3_3 0.0))
(assert
 (>= l_1_3_4 0.0))
(assert
 (>= l_1_3_5 0.0))
(assert
 (>= l_1_3_6 0.0))
(assert
 (>= l_1_3_7 0.0))
(assert
 (>= l_1_3_8 0.0))
(assert
 (>= l_1_3_9 0.0))
(assert
 (>= l_1_3_10 0.0))
(assert
 (>= l_1_3_11 0.0))
(assert
 (>= l_1_3_12 0.0))
(assert
 (>= l_1_3_13 0.0))
(assert
 (>= l_1_3_14 0.0))
(assert
 (>= l_1_3_15 0.0))
(assert
 (>= l_1_3_16 0.0))
(assert
 (>= l_1_3_17 0.0))
(assert
 (>= l_1_3_18 0.0))
(assert
 (>= l_1_3_19 0.0))
(assert
 (>= l_1_3_20 0.0))
(assert
 (>= l_1_3_21 0.0))
(assert
 (>= l_1_3_22 0.0))
(assert
 (>= l_1_3_23 0.0))
(assert
 (>= l_1_3_24 0.0))
(assert
 (>= l_1_3_25 0.0))
(assert
 (>= l_1_3_26 0.0))
(assert
 (>= l_1_3_27 0.0))
(assert
 (>= l_1_3_28 0.0))
(assert
 (>= l_1_3_29 0.0))
(assert
 (>= l_1_3_30 0.0))
(assert
 (>= l_1_3_31 0.0))
(assert
 (>= l_1_3_32 0.0))
(assert
 (>= l_1_3_33 0.0))
(assert
 (>= l_1_3_35 0.0))
(assert
 (>= l_1_3_38 0.0))
(check-sat)
(get-model)